NAME: line_20_9
TYPE: TSP
COMMENT: line_20_9
DIMENSION: 20
EDGE_WEIGHT_TYPE: EUC_2D
NODE_COORD_SECTION
1 0.0 65.0
2 0.0 21.0
3 0.0 60.0
4 0.0 172.0
5 0.0 79.0
6 0.0 125.0
7 0.0 0.0
8 0.0 4.0
9 0.0 134.0
10 0.0 155.0
11 0.0 22.0
12 0.0 172.0
13 0.0 170.0
14 0.0 32.0
15 0.0 167.0
16 0.0 39.0
17 0.0 41.0
18 0.0 167.0
19 0.0 75.0
20 0.0 41.0
